c FILE /home/rafael/Documents/HappySet/MIHS/inputs/happygen/output/graph_d_regular_k2_p0.3_v50_20241127_082544.txt
c SOURCE This is a d-regular graph formed for the happy graph colouring problem.
c DESCRIPTION It was generated using the problem generator of Rhyd Lewis
c
c GRAPH STATS
c Seed                             = -2050771924
c Number of Nodes                  = 50
c Number of colours k              = 2
c Number of pre-assignments        = 15
c Degree of all vertices           = 6
c Density                          = 0.122449
c 
c The degrees of nodes 1 to 50, respectively, are as follows 
c [6, 6, 6, 6, 6, 6, 6, 6, 6, 6, 6, 6, 6, 6, 6, 6, 6, 6, 6, 6, 6, 6, 6, 6, 6, 6, 
c  6, 6, 6, 6, 6, 6, 6, 6, 6, 6, 6, 6, 6, 6, 6, 6, 6, 6, 6, 6, 6, 6, 6, 6] 
c  
p edge 50 150 2
e 1 4
e 1 6
e 1 17
e 1 18
e 1 35
e 1 36
e 2 3
e 2 23
e 2 28
e 2 30
e 2 34
e 2 36
e 3 22
e 3 27
e 3 30
e 3 37
e 3 50
e 4 5
e 4 11
e 4 19
e 4 43
e 4 46
e 5 6
e 5 14
e 5 16
e 5 33
e 5 38
e 6 21
e 6 23
e 6 48
e 6 49
e 7 22
e 7 27
e 7 32
e 7 36
e 7 41
e 7 43
e 8 17
e 8 30
e 8 37
e 8 39
e 8 40
e 8 49
e 9 12
e 9 15
e 9 37
e 9 39
e 9 45
e 9 47
e 10 24
e 10 27
e 10 34
e 10 35
e 10 44
e 10 50
e 11 17
e 11 29
e 11 33
e 11 38
e 11 49
e 12 15
e 12 18
e 12 41
e 12 42
e 12 45
e 13 20
e 13 24
e 13 29
e 13 37
e 13 47
e 13 48
e 14 17
e 14 18
e 14 27
e 14 28
e 14 30
e 15 23
e 15 26
e 15 43
e 15 48
e 16 19
e 16 20
e 16 35
e 16 38
e 16 47
e 17 22
e 17 26
e 18 34
e 18 45
e 18 50
e 19 21
e 19 27
e 19 38
e 19 44
e 20 26
e 20 31
e 20 39
e 20 47
e 21 23
e 21 28
e 21 43
e 21 48
e 22 28
e 22 42
e 22 46
e 23 25
e 23 36
e 24 29
e 24 32
e 24 34
e 24 40
e 25 34
e 25 40
e 25 44
e 25 46
e 25 50
e 26 28
e 26 35
e 26 45
e 27 32
e 28 47
e 29 31
e 29 44
e 29 48
e 30 39
e 30 40
e 31 32
e 31 37
e 31 41
e 31 49
e 32 42
e 32 44
e 33 40
e 33 41
e 33 42
e 33 43
e 34 42
e 35 38
e 35 41
e 36 41
e 36 46
e 37 48
e 38 50
e 39 46
e 39 49
e 40 43
e 42 46
e 44 47
e 45 49
e 45 50
n 1 1
n 4 1
n 6 1
n 10 2
n 11 1
n 16 1
n 22 2
n 25 2
n 26 1
n 36 1
n 37 1
n 39 1
n 44 2
n 48 1
n 50 2
